tsp_instances/TSP50/instance128.tsp
NODE_COORD_SECTION
0 71 159
1 105 149
2 107 155
3 160 190
4 21 39
5 29 19
6 162 114
7 9 127
8 103 95
9 162 63
10 194 168
11 91 83
12 5 34
13 95 96
14 119 23
15 55 176
16 200 88
17 188 128
18 108 192
19 136 28
20 165 121
21 98 140
22 111 190
23 92 198
24 7 12
25 84 152
26 71 6
27 192 1
28 70 53
29 80 113
30 5 65
31 118 172
32 85 44
33 184 122
34 169 37
35 61 167
36 7 40
37 114 68
38 144 99
39 119 49
40 117 115
41 161 79
42 161 65
43 148 103
44 187 134
45 1 110
46 171 44
47 100 131
48 137 177
49 189 154
