tsp_instances/TSP50/instance128.opt.tour
TOUR_SECTION
1
26
3
2
22
48
41
9
14
30
8
46
31
5
37
13
25
6
27
33
29
12
38
40
15
20
28
35
47
10
43
42
39
44
7
21
17
34
18
45
50
11
4
49
32
23
19
24
16
36
-1